n_res = 4;
rc = [ 23, 20, 23, 21 ];
n_tasks = 30;
d = [ 5, 4, 6, 4, 7, 6, 10, 3, 6, 7, 6, 7, 8, 4, 1, 2, 2, 10, 8, 6, 6, 3, 7, 8, 8, 6, 2, 10, 10, 6 ];
rr = [| 23, 23, 23, 23, 23, 23, 23, 23, 23, 23, 23, 23, 23, 23, 23, 23, 23, 23, 23, 23, 23, 23, 23, 23, 23, 23, 23, 23, 23, 23
      | 20, 20, 20, 20, 20, 20, 20, 20, 20, 20, 20, 20, 20, 20, 20, 20, 20, 20, 20, 20, 20, 20, 20, 20, 20, 20, 20, 20, 20, 20
      | 23, 23, 23, 23, 23, 23, 23, 23, 23, 23, 23, 23, 23, 23, 23, 23, 23, 23, 23, 23, 23, 23, 23, 23, 23, 23, 23, 23, 23, 23
      | 21, 21, 21, 21, 21, 21, 21, 21, 21, 21, 21, 21, 21, 21, 21, 21, 21, 21, 21, 21, 21, 21, 21, 21, 21, 21, 21, 21, 21, 21|];
suc = [ { 4, 10, 13 },
       { 5, 7, 9 },
       { 8, 16, 24 },
       { 5, 6, 14 },
       { 8, 16, 26 },
       { 7, 15, 18 },
       { 21, 23 },
       { 23, 25, 28 },
       { 11, 13, 16 },
       { 14, 17, 19 },
       { 12, 15, 17 },
       { 19, 22, 29 },
       { 14, 17 },
       { 18, 20 },
       { 19, 20 },
       { 23, 30 },
       { 18, 22, 28 },
       { 27 },
       { 24, 25, 26 },
       { 21, 25, 29 },
       { 22, 26, 27 },
       { 24 },
       { 29 },
       { 30 },
       { 27 },
       { 28 },
       { 30 },
       {  },
       {  },
       {  } ];
